c A SAT instance generated from a 3-CNF formula that had 20 clauses and 10 variables
p cnf 10 20
10 6 -1 0
9 -6 5 0
-3 2 1 0
-1 -2 6 0
8 6 -2 0
-9 -6 1 0
-8 7 6 0
-10 -8 -7 0
10 1 -8 0
10 9 -8 0
1 5 10 0
10 -3 9 0
-10 -1 -3 0
-6 10 9 0
-1 -4 8 0
10 -9 -8 0
-7 -9 -1 0
-4 -6 2 0
5 -1 -9 0
-9 -1 -10 0
